50
    1    15    15
    2    52    52
    3    64    64
    4    60    60
    5    74    74
    6    34    34
    7    95    95
    8    74    74
    9    48    48
   10    79    79
   11    37    37
   12     7     7
   13    29    29
   14    63    63
   15    43    43
   16    45    45
   17    61    61
   18    44    44
   19    78    78
   20    64    64
   21    55    55
   22     9     9
   23    83    83
   24    57    57
   25    16    16
   26     5     5
   27    84    84
   28    72    72
   29    28    28
   30    13    13
   31    28    28
   32    26    26
   33    25    25
   34    88    88
   35    40    40
   36    32    32
   37    89    89
   38    12    12
   39    30    30
   40    39    39
   41    53    53
   42    75    75
   43    23    23
   44    81    81
   45    76    76
   46    26    26
   47    54    54
   48    58    58
   49    40    40
   50    23    23
2005
